! DFT B3LYP 6-31g TightSCF Grid5 NoFinalGrid SlowConv
%pal
nprocs 16
end
%method SpecialGridAtoms 26
SpecialGridIntAcc 7
end
%basis NewGTO 26 "CP(PPP)" end
end
# [Fe(PH)3]0 , s = 0 ,  m = 2s + 1
* xyz 0 1
Fe -0.000082 -0.598603 -0.036628
P 0.211882 -2.810897 -0.175639
H 1.483580 -3.394435 0.062124
S -1.681392 -0.534557 -1.511495
S -1.537799 -0.721723 1.691329
S 1.641137 -0.589803 -1.700668
S 1.585758 -0.380926 1.517692
C -5.508724 -0.173407 1.009369
C -5.588937 -0.037866 -0.385599
C -4.423332 -0.121705 -1.148355
C -3.188144 -0.308244 -0.513901
C -3.087323 -0.442376 0.885241
C -4.282533 -0.370864 1.635462
C 3.147999 -0.395253 -0.778180
C 3.154055 -0.248197 0.622722
C 4.399575 -0.386836 -1.431544
C 5.582458 -0.240951 -0.712848
C 5.565693 -0.098724 0.683030
C 4.342429 -0.115705 1.350206
C -1.345139 1.178247 -2.153467
C 1.189049 1.376223 1.995464
C 0.561184 2.121374 0.861648
C -0.725954 2.030067 -1.088150
N -0.077455 1.378733 -0.082727
C -0.763780 3.422804 -1.157212
C 0.578921 3.513750 0.826018
C -0.092386 4.180399 -0.200476
H -6.413097 -0.136861 1.610919
H -6.550374 0.110370 -0.868304
H -4.473632 -0.043424 -2.231907
H -4.229319 -0.470945 2.716483
H 4.436800 -0.498539 -2.512141
H 6.529165 -0.244740 -1.246735
H 6.492124 0.001529 1.241309
H 4.301630 -0.031284 2.433748
H -2.259398 1.606885 -2.566467
H -0.626592 1.008816 -2.961814
H 2.081446 1.864802 2.390684
H 0.459752 1.245926 2.801183
H -1.292561 3.905642 -1.972474
H 1.103275 4.056602 1.605393
H -0.094881 5.264749 -0.250717
H -0.029598 -3.415509 -1.436139
H -0.571713 -3.680252 0.632427
*
# Note that the EPR block needs to below the coordinate block for 
# the “all Fe” command (all irons) to be recognized. 
%eprnmr nuclei = all Fe {rho, fgrad}
end
