! DFT B3LYP 6-31g TightSCF Grid5 NoFinalGrid SlowConv
%pal
nprocs 16
end
%method SpecialGridAtoms 26
SpecialGridIntAcc 7
end
%basis NewGTO 26 "CP(PPP)" end
end
# [{Fe-NO}^6]1+ , s = 0 ,  m = 2s + 1
* xyz 1 1
Fe -0.010636 -0.716003 0.015193
N -0.042760 -2.359927 0.030934
O -0.061686 -3.504857 0.042343
S -1.659863 -0.495151 -1.535905
S -1.590919 -0.601401 1.731035
S 1.553915 -0.658132 -1.714924
S 1.664445 -0.527901 1.545733
C -5.532556 -0.189292 0.871724
C -5.569698 -0.075587 -0.524263
C -4.381712 -0.142477 -1.249798
C -3.169876 -0.287983 -0.563573
C -3.111323 -0.395587 0.835185
C -4.326363 -0.352476 1.546124
C 3.082227 -0.410070 -0.844987
C 3.159303 -0.296358 0.552016
C 4.285757 -0.353256 -1.574588
C 5.499970 -0.175258 -0.918501
C 5.555459 -0.052951 0.476240
C 4.379287 -0.132023 1.219897
C -1.226023 1.223650 -2.074233
C 1.251444 1.185661 2.108119
C 0.668496 1.994983 0.997940
C -0.613379 2.012660 -0.965422
N 0.021203 1.319586 0.013748
C -0.622301 3.405351 -0.979640
C 0.716130 3.386430 1.011630
C 0.060246 4.102831 0.013880
H -6.455089 -0.165674 1.444119
H -6.517470 0.045086 -1.039736
H -4.392562 -0.089317 -2.335228
H -4.314415 -0.445267 2.628080
H 4.256936 -0.451134 -2.655724
H 6.414464 -0.145567 -1.503284
H 6.509339 0.079849 0.977155
H 4.407342 -0.072268 2.304692
H -2.122614 1.686083 -2.488925
H -0.494972 1.069820 -2.874533
H 2.151770 1.628398 2.535723
H 0.510214 1.036317 2.899768
H -1.145173 3.925295 -1.774483
H 1.247834 3.892508 1.809409
H 0.078592 5.187712 0.012458
*
# Note that the EPR block needs to below the coordinate block for 
# the “all Fe” command (all irons) to be recognized. 
%eprnmr nuclei = all Fe {rho, fgrad}
end
